NAME : ./TSPLIB/a280.tsp.optbc.tour
COMMENT : Optimal tour for a280.tsp
TYPE : TOUR
DIMENSION : 280
TOUR_SECTION
23
24
14
13
15
16
271
272
273
12
11
10
9
8
7
5
6
274
275
276
277
4
278
249
248
279
3
280
1
2
242
243
244
241
240
239
238
237
236
235
234
233
229
230
251
250
247
245
246
231
232
228
227
226
225
224
223
222
221
220
219
218
217
216
215
213
214
211
212
206
207
210
209
208
253
252
255
256
254
257
258
259
260
261
262
263
264
267
266
265
205
204
203
202
197
198
199
200
201
196
195
194
193
192
191
190
186
189
188
187
185
184
183
182
181
160
175
161
162
164
163
165
166
167
168
100
101
169
170
172
171
173
174
107
106
105
104
108
109
110
111
112
113
87
84
83
88
82
81
89
90
91
103
102
92
99
98
93
97
96
95
94
80
79
78
77
76
75
74
73
72
71
70
67
69
68
64
65
66
85
86
116
62
63
59
57
58
44
45
42
41
40
47
46
56
55
54
53
48
49
50
51
52
39
38
37
36
35
34
33
32
31
29
30
125
124
123
122
43
60
61
118
117
115
114
159
158
157
119
120
121
155
153
156
152
151
178
177
176
180
179
150
149
148
147
146
145
144
143
142
141
140
139
138
137
136
268
269
135
270
134
133
132
131
130
154
126
127
128
129
21
20
19
18
17
22
26
28
27
25
